column=9;
row=9;
max=6;
left=[3, 4, 0, 0, 6, 2, 5, 3, 1];
right=[0, 1, 2, 3, 5, 1, 4, 2, 5];
top=[0, 5, 4, 5, 0, 1, 2, 1, 6];
bottom=[1, 6, 3, 4, 3, 2, 4, 2, 5];
Board=[|3,0,4,5,0,1,2,0,6|4,5,0,0,2,3,6,1,0|0,4,6,1,0,0,3,5,0|0,1,0,2,0,4,0,0,3|6,2,1,3,4,5,0,0,0|2,3,0,6,5,0,0,4,1|5,0,2,0,6,0,1,3,4|0,0,3,4,1,6,5,2,0|1,6,0,0,3,2,4,0,5|]